(set-logic ALL)
(declare-fun var0 () String)
(assert (str.in_re var0 (re.++ (re.+ (re.* (str.to_re "00"))) (re.union (re.+ (str.to_re "111")) (re.+ (str.to_re "22"))))))
(assert (<= 15 (str.len var0)))
(check-sat)